NAME          simple3

******************
*   Maximum: 55000 
*   Minimum: 0
******************

ROWS
 E  0
 E  1
 L  2
 L  3
 L  4
 N  c
COLUMNS
    x0        0         1.             1         2.
    x0        4         1.
    x1        1         -1.            2         1.
    x1        4         1.
    x2        3         1.             4         1.
    x3        0         1.             1         2.
    x4        1         -1.            2         1.
    x0        c         -150.
    x1        c         -100.
    x2        c         -50.  
RHS
    b         0         200.           1         200.
    b         2         200.           3         200.
    b         4         500.
ENDATA
 